r = [
0,4,15,10,14,13,13,6,1,1,3,0
];
p = [
0,14,3,24,30,16,24,20,7,14,18,0
];
e = [
0,2,10,14,13,20,3,4,10,11,11,0
];
d = [
0,209,133,160,159,190,218,88,100,124,80,240
];
d_bar = [
0,222,136,182,186,204,240,106,106,137,96,240
];
w = [
0,0.153846154,3.333333333,0.636363636,0.481481481,1.428571429,0.136363636,0.222222222,1.666666667,0.846153846,0.6875,0
];
